32      4       
14      14      20      12      
0       0       0       0       0       3       2       3       5       
9       1       1       1       6       1       4       
5       1       11      14      6       1       4       
4       1       8       1       1       2       6       11      
5       1       1       2       1       2       6       11      
4       1       1       2       2       2       7       10      
10      3       3       1       6       4       8       13      14      19      
4       7       1       10      1       3       9       16      21      
9       4       6       1       1       2       12      17      
5       1       5       3       6       4       15      17      20      21      
6       7       7       8       1       2       15      16      
4       9       1       7       1       4       15      20      22      25      
8       1       1       1       2       2       15      20      
6       1       6       1       1       4       17      20      21      23      
7       6       5       1       1       4       18      24      29      31      
3       6       6       8       8       3       17      20      26      
7       10      1       8       7       3       25      28      30      
4       6       1       1       1       2       23      30      
3       6       1       4       1       4       27      28      29      30      
1       1       2       4       5       3       27      28      30      
5       1       1       17      3       3       27      28      29      
6       1       4       1       5       3       27      29      30      
7       2       1       6       1       2       26      28      
4       4       1       1       1       2       26      28      
10      1       1       4       5       2       27      29      
4       1       1       7       2       1       27      
3       1       10      7       6       1       32      
7       10      1       13      1       1       32      
2       1       3       1       3       1       32      
1       6       1       4       4       1       32      
5       4       13      11      1       1       32      
0       0       0       0       0       0       
